NAME: GRASP_14_6
TYPE: TSP
COMMENT: line_14_6
DIMENSION: 14
EDGE_WEIGHT_TYPE: EUC_2D
NODE_COORD_SECTION
1 0.0 123.0
2 0.0 118.0
3 0.0 109.0
4 0.0 102.0
5 0.0 139.0
6 0.0 40.0
7 0.0 53.0
8 0.0 94.0
9 0.0 59.0
10 0.0 8.0
11 0.0 30.0
12 0.0 96.0
13 0.0 87.0
14 0.0 55.0
